(set-logic ALL)
(declare-var c (BitVec 32))
(declare-var c! (BitVec 32))
(declare-var i (BitVec 32))
(declare-var i! (BitVec 32))
(declare-var j (BitVec 32))
(declare-var j! (BitVec 32))
(declare-var conf_0 (BitVec 32))
(declare-var conf_0! (BitVec 32))
(declare-var conf_1 (BitVec 32))
(declare-var conf_1! (BitVec 32))
(declare-var conf_2 (BitVec 32))
(declare-var conf_2! (BitVec 32))
(declare-var conf_3 (BitVec 32))
(declare-var conf_3! (BitVec 32))
(declare-var conf_4 (BitVec 32))
(declare-var conf_4! (BitVec 32))
(declare-var t (BitVec 32))
(declare-var t! (BitVec 32))
(declare-var tmp (BitVec 32))
(declare-var tmp! (BitVec 32))
(declare-var c_0 (BitVec 32))
(declare-var c_0! (BitVec 32))
(declare-var i_0 (BitVec 32))
(declare-var i_0! (BitVec 32))
(declare-var i_1 (BitVec 32))
(declare-var i_1! (BitVec 32))
(declare-var i_2 (BitVec 32))
(declare-var i_2! (BitVec 32))
(declare-var i_3 (BitVec 32))
(declare-var i_3! (BitVec 32))
(declare-var i_4 (BitVec 32))
(declare-var i_4! (BitVec 32))
(declare-var j_0 (BitVec 32))
(declare-var j_0! (BitVec 32))
(declare-var j_1 (BitVec 32))
(declare-var j_1! (BitVec 32))
(declare-var j_2 (BitVec 32))
(declare-var j_2! (BitVec 32))
(declare-var j_3 (BitVec 32))
(declare-var j_3! (BitVec 32))
(declare-var conf_0_0 (BitVec 32))
(declare-var conf_0_0! (BitVec 32))
(declare-var conf_0_1 (BitVec 32))
(declare-var conf_0_1! (BitVec 32))
(declare-var conf_0_2 (BitVec 32))
(declare-var conf_0_2! (BitVec 32))
(declare-var conf_0_3 (BitVec 32))
(declare-var conf_0_3! (BitVec 32))
(declare-var conf_1_0 (BitVec 32))
(declare-var conf_1_0! (BitVec 32))
(declare-var conf_1_1 (BitVec 32))
(declare-var conf_1_1! (BitVec 32))
(declare-var conf_1_2 (BitVec 32))
(declare-var conf_1_2! (BitVec 32))
(declare-var conf_1_3 (BitVec 32))
(declare-var conf_1_3! (BitVec 32))
(declare-var conf_2_0 (BitVec 32))
(declare-var conf_2_0! (BitVec 32))
(declare-var conf_3_0 (BitVec 32))
(declare-var conf_3_0! (BitVec 32))
(declare-var conf_3_1 (BitVec 32))
(declare-var conf_3_1! (BitVec 32))
(declare-var conf_3_2 (BitVec 32))
(declare-var conf_3_2! (BitVec 32))
(declare-var conf_3_3 (BitVec 32))
(declare-var conf_3_3! (BitVec 32))
(declare-var conf_4_0 (BitVec 32))
(declare-var conf_4_0! (BitVec 32))
(declare-var t_0 (BitVec 32))
(declare-var t_0! (BitVec 32))
(declare-var t_1 (BitVec 32))
(declare-var t_1! (BitVec 32))
(declare-var t_2 (BitVec 32))
(declare-var t_2! (BitVec 32))
(declare-var t_3 (BitVec 32))
(declare-var t_3! (BitVec 32))
(synth-fun inv-f((parameter0 (BitVec 32))(parameter1 (BitVec 32))(parameter2 (BitVec 32))(parameter3 (BitVec 32))(parameter4 (BitVec 32))(parameter5 (BitVec 32))(parameter6 (BitVec 32))(parameter7 (BitVec 32))(parameter8 (BitVec 32))(parameter9 (BitVec 32))(parameter10 (BitVec 32))(parameter11 (BitVec 32))(parameter12 (BitVec 32))(parameter13 (BitVec 32))(parameter14 (BitVec 32))(parameter15 (BitVec 32))(parameter16 (BitVec 32))(parameter17 (BitVec 32))(parameter18 (BitVec 32))(parameter19 (BitVec 32))(parameter20 (BitVec 32))(parameter21 (BitVec 32))(parameter22 (BitVec 32))(parameter23 (BitVec 32))(parameter24 (BitVec 32))(parameter25 (BitVec 32))(parameter26 (BitVec 32))(parameter27 (BitVec 32))(parameter28 (BitVec 32))(parameter29 (BitVec 32))(parameter30 (BitVec 32))(parameter31 (BitVec 32))(parameter32 (BitVec 32))(parameter33 (BitVec 32))(parameter34 (BitVec 32))(parameter35 (BitVec 32))(parameter36 (BitVec 32))(parameter37 (BitVec 32)))Bool) 
(constraint (=> (and (and (and (and (and (and (and (and (and (and (and (= i i_1) (= conf_0 conf_0_0) ) (= conf_1 conf_1_0) ) (= conf_2 conf_2_0) ) (= conf_3 conf_3_0) ) (= conf_4 conf_4_0) ) (= conf_0_0 (_ bv9 32)) ) (= conf_1_0 (_ bv0 32)) ) (= conf_2_0 (_ bv7 32)) ) (= conf_3_0 (_ bv4 32)) ) (= conf_4_0 (_ bv0 32)) ) (= i_1 (_ bv0 32)) )(inv-f c i j conf_0 conf_1 conf_2 conf_3 conf_4 t tmp c_0 i_0 i_1 i_2 i_3 i_4 j_0 j_1 j_2 j_3 conf_0_0 conf_0_1 conf_0_2 conf_0_3 conf_1_0 conf_1_1 conf_1_2 conf_1_3 conf_2_0 conf_3_0 conf_3_1 conf_3_2 conf_3_3 conf_4_0 t_0 t_1 t_2 t_3 )))
(constraint (=> (and (inv-f c i j conf_0 conf_1 conf_2 conf_3 conf_4 t tmp c_0 i_0 i_1 i_2 i_3 i_4 j_0 j_1 j_2 j_3 conf_0_0 conf_0_1 conf_0_2 conf_0_3 conf_1_0 conf_1_1 conf_1_2 conf_1_3 conf_2_0 conf_3_0 conf_3_1 conf_3_2 conf_3_3 conf_4_0 t_0 t_1 t_2 t_3 ) (or (or (or (and (and (and (and (and (and (and (and (and (and (and (and (and (and (and (and (and (and (and (and (and (= i_2 i) (= j_1 j) ) (= conf_0_1 conf_0) ) (= conf_1_1 conf_1) ) (= conf_3_1 conf_3) ) (= t_1 t) ) (= i_2 i!) ) (= j_1 j!) ) (= conf_0_1 conf_0!) ) (= conf_1_1 conf_1!) ) (= conf_3_1 conf_3!) ) (= t_1 t!) ) (= c c!) ) (= i i!) ) (= j j!) ) (= conf_0 conf_0!) ) (= conf_1 conf_1!) ) (= conf_2 conf_2!) ) (= conf_3 conf_3!) ) (= conf_4 conf_4!) ) (= t t!) ) (= tmp tmp!) ) (and (and (and (and (and (and (and (and (and (and (and (and (and (and (and (and (and (and (and (and (and (and (and (and (and (and (and (and (and (and (and (and (= i_2 i) (= j_1 j) ) (= conf_0_1 conf_0) ) (= conf_1_1 conf_1) ) (= conf_3_1 conf_3) ) (= t_1 t) ) (bvugt c_0 (_ bv48 32)) ) (bvult c_0 (_ bv57 32)) ) (= j_2 (bvadd i_2 i_2)) ) (= conf_3_2 (_ bv676 32)) ) (= t_2 (bvsub c_0 (_ bv48 32))) ) (= conf_1_2 (bvsub conf_0_1 conf_1_1)) ) (= i_3 (bvadd j_2 t_2)) ) (= conf_0_2 (bvadd (_ bv559 32) (_ bv129 32))) ) (= i_4 i_3) ) (= j_3 j_2) ) (= conf_0_3 conf_0_2) ) (= conf_1_3 conf_1_2) ) (= conf_3_3 conf_3_2) ) (= t_3 t_2) ) (= i_4 i!) ) (= j_3 j!) ) (= conf_0_3 conf_0!) ) (= conf_1_3 conf_1!) ) (= conf_3_3 conf_3!) ) (= t_3 t!) ) (= c c_0) ) (= c! c_0) ) (= conf_2 conf_2_0) ) (= conf_2! conf_2_0) ) (= conf_4 conf_4_0) ) (= conf_4! conf_4_0) ) (= tmp tmp!) ) ) (and (and (and (and (and (and (and (and (and (and (and (and (and (and (and (and (and (and (and (and (and (and (and (and (and (and (= i_2 i) (= j_1 j) ) (= conf_0_1 conf_0) ) (= conf_1_1 conf_1) ) (= conf_3_1 conf_3) ) (= t_1 t) ) (bvugt c_0 (_ bv48 32)) ) (not (bvult c_0 (_ bv57 32))) ) (= i_4 i_2) ) (= j_3 j_1) ) (= conf_0_3 conf_0_1) ) (= conf_1_3 conf_1_1) ) (= conf_3_3 conf_3_1) ) (= t_3 t_1) ) (= i_4 i!) ) (= j_3 j!) ) (= conf_0_3 conf_0!) ) (= conf_1_3 conf_1!) ) (= conf_3_3 conf_3!) ) (= t_3 t!) ) (= c c_0) ) (= c! c_0) ) (= conf_2 conf_2_0) ) (= conf_2! conf_2_0) ) (= conf_4 conf_4_0) ) (= conf_4! conf_4_0) ) (= tmp tmp!) ) ) (and (and (and (and (and (and (and (and (and (and (and (and (and (and (and (and (and (and (and (and (and (and (and (and (and (= i_2 i) (= j_1 j) ) (= conf_0_1 conf_0) ) (= conf_1_1 conf_1) ) (= conf_3_1 conf_3) ) (= t_1 t) ) (not (bvugt c_0 (_ bv48 32))) ) (= i_4 i_2) ) (= j_3 j_1) ) (= conf_0_3 conf_0_1) ) (= conf_1_3 conf_1_1) ) (= conf_3_3 conf_3_1) ) (= t_3 t_1) ) (= i_4 i!) ) (= j_3 j!) ) (= conf_0_3 conf_0!) ) (= conf_1_3 conf_1!) ) (= conf_3_3 conf_3!) ) (= t_3 t!) ) (= c c_0) ) (= c! c_0) ) (= conf_2 conf_2_0) ) (= conf_2! conf_2_0) ) (= conf_4 conf_4_0) ) (= conf_4! conf_4_0) ) (= tmp tmp!) ) ) )(inv-f c! i! j! conf_0! conf_1! conf_2! conf_3! conf_4! t! tmp! c_0! i_0! i_1! i_2! i_3! i_4! j_0! j_1! j_2! j_3! conf_0_0! conf_0_1! conf_0_2! conf_0_3! conf_1_0! conf_1_1! conf_1_2! conf_1_3! conf_2_0! conf_3_0! conf_3_1! conf_3_2! conf_3_3! conf_4_0! t_0! t_1! t_2! t_3! )))
(constraint (=> (inv-f c i j conf_0 conf_1 conf_2 conf_3 conf_4 t tmp c_0 i_0 i_1 i_2 i_3 i_4 j_0 j_1 j_2 j_3 conf_0_0 conf_0_1 conf_0_2 conf_0_3 conf_1_0 conf_1_1 conf_1_2 conf_1_3 conf_2_0 conf_3_0 conf_3_1 conf_3_2 conf_3_3 conf_4_0 t_0 t_1 t_2 t_3 )(or (not (and (and (and (and (and (and (and (and (= c c_0) (= i i_2) ) (= j j_1) ) (= conf_0 conf_0_1) ) (= conf_1 conf_1_1) ) (= conf_2 conf_2_0) ) (= conf_3 conf_3_1) ) (= conf_4 conf_4_0) ) (= t t_1) )) (not (not (bvuge i_2 (_ bv0 32)))) )))
(check-synth)

